%mem=15GB     
%nproc=20
#P TEST b3lyp/6-311G** EmpiricalDispersion=GD3 counterpoise=2

t

0 1 0 1 0 1
X
X  1 1.0
X  1 10.0 2  90.0
X  3 30.0 1  90.0  2   -90.0
C  1 R1   3  A1    4     0.0 0 1
S  5 R2   1  A2    3     0.0 0 1
C  6 R3   5  A3    1     0.0 0 1
C  7 R4   6  A4    5   180.0 0 1
C  8 R5   7  A5    6   180.0 0 1
C  9 R6   8  A6    7     0.0 0 1
C 10 R7   9  A7    8     0.0 0 1
C 11 R8  10  A8    9     0.0 0 1
H  8 R9   7  A9    6     0.0 0 1
H  9 R10  8 A10   13     0.0 0 1
H 10 R11  9 A11   14     0.0 0 1
H 11 R12 10 A12   15     0.0 0 1
C  1 R1 5 180.0    4   180.0 0 1
S 17 R13  1 A13    3   180.0 0 1
C 18 R14 17 A14    1     0.0 0 1
C 19 R15 18 A15   17   180.0 0 1
C 20 R16 19 A16   18   180.0 0 1
C 21 R17 20 A17   19     0.0 0 1
C 22 R18 21 A18   20     0.0 0 1
C 23 R19 22 A19   21     0.0 0 1
H 20 R20 19 A20   18     0.0 0 1
C 21 R21 20 A21   25     0.0 0 1
H 22 R22 21 A22   26     0.0 0 1
H 23 R23 22 A23   27     0.0 0 1
C 26 R24 21 A24   22    phi1 0 1  
H 26 R26 21 A26   29     D26 0 1  
H 26 R27 21 A27   29     D27 0 1
C 29 R28 26  A28 21   D28 0 1
H 29 R29 26  A29 32   D29 0 1
H 29 R30 26  A30 32   D30 0 1
C 32 R31 29  A31 26   D31 0 1 
H 32 R32 29  A32 35   D32 0 1
H 32 R33 29  A33 35   D33 0 1
C 35 R34 32  A34 29   D34 0 1
H 35 R35 32  A35 29   D35 0 1
H 35 R36 32  A36 29   D36 0 1
C 38 R37 35  A37 32   D37 0 1
H 38 R38 35  A38 32   D38 0 1
H 38 R39 35  A39 32   D39 0 1
C 41 R40 38  A40 35   D40 0 1
H 41 R41 38  A41 35   D41 0 1
H 41 R42 38  A42 35   D42 0 1
C 44 R43 41  A43 38   D43 0 1
H 44 R44 41  A44 38   D44 0 1
H 44 R45 41  A45 38   D45 0 1
C 47 R46 44  A46 41   D46 0 1
H 47 R47 44  A47 41   D47 0 1
H 47 R48 44  A48 41   D48 0 1
H 50 R49 47  A49 44   D49 0 1
H 50 R50 47  A50 44   D50 0 1
H 50 R51 47  A51 44   D51 0 1
X 4 30.0  3 90.0  1  90.0
X 56  YY  4 90.0  3   0.0 
X 57  XX 56 90.0  4   0.0  
X 58  ZZ 57 90.0 56 -90.0 
X 59 1.0 58 90.0 57   0.0 
X 59 2.0 60 heri 57 -90.0
C	59	R1	58	A1	61	90.0	0	2
S	62	R2	59	A2	58	0.0	0	2
C	63	R3	62	A3	59	0.0	0	2
C	64	R4	63	A4	62	180.0	0	2
C	65	R5	64	A5	63	180.0	0	2
C	66	R6	65	A6	64	0.0	0	2
C	67	R7	66	A7	65	0.0	0	2
C	68	R8	67	A8	66	0.0	0	2
H	65	R9	64	A9	63	0.0	0	2
H	66	R10	65	A10	70	0.0	0	2
H	67	R11	66	A11	71	0.0	0	2
H	68	R12	67	A12	72	0.0	0	2
C	59	R1	62	180.0	61	-90.0	0	2
S	74	R13	59	A13	58	180.0	0	2
C	75	R14	74	A14	59	0.0	0	2
C	76	R15	75	A15	74	180.0	0	2
C	77	R16	76	A16	75	180.0	0	2
C	78	R17	77	A17	76	0.0	0	2
C	79	R18	78	A18	77	0.0	0	2
C	80	R19	79	A19	78	0.0	0	2
H	77	R20	76	A20	75	0.0	0	2
C	78	R21	77	A21	82	0.0	0	2
H	79	R22	78	A22	83	0.0	0	2
H	80	R23	79	A23	84	0.0	0	2
C	83	R24	78	A24	79     phi2     0       2
H	83	R26	78	A26	86	D26	0	2
H	83	R27	78	A27	86	D27	0	2
C	86	R28	83	A28	78	D28	0	2
H	86	R29	83	A29	89	D29	0	2
H	86	R30	83	A30	89	D30	0	2
C	89	R31	86	A31	83	D31	0	2
H	89	R32	86	A32	92	D32	0	2
H	89	R33	86	A33	92	D33	0	2
C	92	R34	89	A34	86	D34	0	2
H	92	R35	89	A35	86	D35	0	2
H	92	R36	89	A36	86	D36	0	2
C	95	R37	92	A37	89	D37	0	2
H	95	R38	92	A38	89	D38	0	2
H	95	R39	92	A39	89	D39	0	2
C	98	R40	95	A40	92	D40	0	2
H	98	R41	95	A41	92	D41	0	2
H	98	R42	95	A42	92	D42	0	2
C	101	R43	98	A43	95	D43	0	2
H	101	R44	98	A44	95	D44	0	2
H	101	R45	98	A45	95	D45	0	2
C	104	R46	101	A46	98	D46	0	2
H	104	R47	101	A47	98	D47	0	2
H	104	R48	101	A48	98	D48	0	2
H	107	R49	104	A49	101	D49	0	2
H	107	R50	104	A50	101	D50	0	2
H	107	R51	104	A51	101	D51	0	2

XX 35.0
YY 29.3
ZZ 10.0
heri 58.0
phi1 11
phi2 -11

R1 0.68695
R2 1.75440
R3 1.76980
R4 1.39369
R5 1.38980
R6 1.40320
R7 1.38630
R8 1.40220
R9 1.08370
R10 1.08370
R11 1.08370
R12 1.08410
R13 1.75530
R14 1.77020
R15 1.39316
R16 1.39360
R17 1.40890
R18 1.38460
R19 1.40170
R20 1.08480
R21 1.51060
R22 1.08500
R23 1.08420
R24 1.53990
R26	1.0958
R27	1.0953
R28	1.531
R29	1.0964
R30	1.0964
R31	1.5318
R32	1.0977
R33	1.0977
R34	1.5313
R35	1.0976
R36	1.0976
R37	1.5319
R38	1.0977
R39	1.0977
R40	1.5316
R41	1.0977
R42	1.0977
R43	1.5322
R44	1.0979
R45	1.0979
R46	1.5311
R47	1.0968
R48	1.0968
R49	1.0934
R50	1.0947
R51	1.0947
A1 121.34828
A2 112.486
A3 90.214
A4 126.298
A5 118.557
A6 120.850
A7 120.736
A8 119.471
A9 120.740
A10 119.436
A11 119.542
A12 120.723
A13 112.423
A14  90.230
A15 126.227
A16 119.537
A17 119.108
A18 121.735
A19 119.552
A20 120.441
A21 120.604
A22 118.828
A23 120.584
A24 112.5865
A26	109.6
A27	109.7877
A28	113.0858
A29	108.9344
A30	109.01
A31	113.2998
A32	109.3087
A33	109.3097
A34	113.4517
A35	109.2424
A36	109.266
A37	113.459
A38	109.2529
A39	109.2614
A40	113.4664
A41	109.2739
A42	109.2843
A43	113.542
A44	109.3023
A45	109.307
A46	113.0671
A47	109.1617
A48	109.1642
A49	111.5846
A50	111.0514
A51	111.0517
D26	121.5446
D27	-121.8041
D28	179.6326
D29	122.3373
D30	-122.3159
D31	180.0942
D32	122.1573
D33	-122.1611
D34	180.0749
D35	57.8884
D36	-57.7104
D37	180.2273
D38	58.0615
D39	-57.6052
D40	180.0805
D41	57.9117
D42	-57.7439
D43	180.0993
D44	57.9341
D45	-57.7337
D46	180.042
D47	57.8411
D48	-57.7547
D49	180.0201
D50	59.8022
D51	-59.7609



