%mem=15GB
%nprocshared=20
#p b3lyp/6-311g(d,p) geom=connectivity empiricaldispersion=gd3 test

BTBT opt b3lyp/6-311G** GD3

0 1
 S                  3.89460400    3.18359700   14.91286900
 S                  0.55515400    4.99739700   16.66864500
 C                  3.04151700    3.42141600   12.27273200
 C                  2.11117200    3.85144900   11.34132500
 C                  0.97183400    4.53614100   11.80055500
 C                  0.73886900    4.76005300   13.12429200
 C                  3.71845500    3.43000100   18.45333800
 C                  3.47497100    3.62563900   19.78441200
 C                  2.32247800    4.28571700   20.21817700
 C                  1.39101900    4.73962900   19.31396100
 C                  1.62082100    4.53173400   17.97166500
 C                  2.78327700    3.88483800   17.50553000
 C                  2.78825000    3.81370900   16.08338600
 C                  1.66585200    4.37029500   15.50287600
 C                  1.66235800    4.30383300   14.07814200
 C                  2.83583200    3.65476100   13.61805000
 C                  2.29315200    3.53473100    9.87127300
 C                  3.46618300    4.16923100    9.20401000
 C                  3.63768700    3.74647400    7.76114900
 C                  4.83093000    4.26020400    7.05935700
 C                  4.98670400    3.77689400    5.62987600
 C                  6.15416900    4.26674400    4.90089200
 C                  6.31731700    3.77060000    3.49040200
 C                  7.48025500    4.28548400    2.75192300
 C                  7.62171000    3.84292900    1.42818600
 H                  3.80698000    2.97428200   11.99132500
 H                  0.35474400    4.84765600   11.17817800
 H                 -0.02779300    5.21204200   13.39447800
 H                  4.49481600    2.99926500   18.17667800
 H                  4.08689100    3.31372700   20.41153700
 H                  2.18416900    4.41995300   21.12800400
 H                  0.62284500    5.17748700   19.60227500
 H                  2.38250993    2.44880745    9.76259822
 H                  1.38721243    3.84339351    9.33927118
 H                  4.37337313    3.91072534    9.76007285
 H                  3.35026892    5.25738118    9.24297302
 H                  3.66746676    2.65238055    7.72801761
 H                  2.75067822    4.06583930    7.20415148
 H                  5.72152717    3.96719766    7.62505035
 H                  4.78833778    5.35436448    7.05448480
 H                  5.02631157    2.68267835    5.64205583
 H                  4.08948223    4.06517342    5.07228020
 H                  7.05076314    3.99175760    5.46615869
 H                  6.10680935    5.36041462    4.87507270
 H                  6.38407067    2.67795335    3.51671265
 H                  5.41326938    4.02907797    2.92923175
 H                  7.42348206    5.37897204    2.74266317
 H                  8.38507557    4.00948074    3.30341818
 H                  8.51788974    4.29147185    0.98694209
 H                  7.71588737    2.75205039    1.41637592
 H                  6.74137374    4.13913615    0.84827705
 S                  6.88176300    8.91542200   14.83561200
 S                  3.52578500    7.17157000   16.63109500
 C                  6.03069400    8.60365900   12.19418000
 C                  5.10578200    8.13725300   11.27226800
 C                  3.96205600    7.49095500   11.75178300
 C                  3.72976400    7.30066900   13.07897300
 C                  6.66424900    8.82390200   18.37910200
 C                  6.40421300    8.70816700   19.70888100
 C                  5.24082300    8.07682200   20.16163700
 C                  4.32740200    7.57110700   19.27252700
 C                  4.57814100    7.69483700   17.92116700
 C                  5.75836800    8.31904000   17.44424200
 C                  5.76154000    8.31350400   16.01735100
 C                  4.65382100    7.74455200   15.44158700
 C                  4.64839000    7.77564400   14.02030700
 C                  5.81782300    8.41246400   13.54165500
 C                  5.30552100    8.41689400    9.79746900
 C                  6.46882700    7.77734100    9.14746900
 C                  6.66476400    8.19094600    7.69899800
 C                  7.84741000    7.68027600    7.01792200
 C                  8.02251600    8.14384400    5.59491600
 C                  9.17953200    7.65435200    4.85989000
 C                  9.34059200    8.15415800    3.45457900
 C                 10.48990000    7.62079300    2.71048900
 C                 10.65364900    8.00620000    1.41437500
 H                  6.79544100    9.04485500   11.90241400
 H                  3.33597500    7.17778100   11.13976500
 H                  2.96234100    6.85663000   13.35908600
 H                  7.44514200    9.23887500   18.09208300
 H                  7.00849200    9.05358400   20.32564700
 H                  5.08541900    7.99872300   21.07534800
 H                  3.55314400    7.15315100   19.57465200
 H                  4.40233281    8.09965583    9.26583376
 H                  5.39678841    9.50012767    9.66593927
 H                  6.34319992    6.69039707    9.18984500
 H                  7.37230305    8.02986366    9.71225952
 H                  5.78307629    7.87221681    7.13325647
 H                  6.69727262    9.28480344    7.66099678
 H                  7.80432172    6.58613495    7.02279564
 H                  8.73235188    7.97773048    7.59013149
 H                  7.12495700    7.85880621    5.03619756
 H                  8.06609060    9.23796102    5.60076457
 H                  9.12725865    6.56101793    4.82967237
 H                 10.07949772    7.92318755    5.42275247
 H                  8.42929983    7.91301983    2.89742196
 H                  9.42680231    9.24534073    3.48479541
 H                 11.39728235    7.89453988    3.25889114
 H                 10.42064007    6.52813420    2.72851127
 H                 11.54782392    7.52780423    1.00132089
 H                  9.77663897    7.70736435    0.83078639
 H                 10.76851307    9.09421715    1.36909891

 1 13 1.0 16 1.0
 2 11 1.0 14 1.0
 3 4 2.0 16 2.0 26 1.0
 4 5 1.5 17 1.0
 5 6 2.0 27 1.0
 6 15 1.5 28 1.0
 7 8 2.0 12 1.5 29 1.0
 8 9 1.5 30 1.0
 9 10 2.0 31 1.0
 10 11 2.0 32 1.0
 11 12 1.5
 12 13 1.5
 13 14 2.0
 14 15 1.5
 15 16 1.5
 16
 17 18 1.0 33 1.0 34 1.0
 18 19 1.0 35 1.0 36 1.0
 19 20 1.0 37 1.0 38 1.0
 20 21 1.0 39 1.0 40 1.0
 21 22 1.0 41 1.0 42 1.0
 22 23 1.0 43 1.0 44 1.0
 23 24 1.0 45 1.0 46 1.0
 24 25 1.5 47 1.0 48 1.0
 25 49 1.0 50 1.0 51 1.0
 26
 27
 28
 29
 30
 31
 32
 33
 34
 35
 36
 37
 38
 39
 40
 41
 42
 43
 44
 45
 46
 47
 48
 49
 50
 51
 52 64 1.0 67 1.0
 53 62 1.0 65 1.0
 54 55 1.5 67 2.0 77 1.0
 55 56 1.5 68 1.0
 56 57 2.0 78 1.0
 57 66 1.5 79 1.0
 58 59 2.0 63 1.5 80 1.0
 59 60 1.5 81 1.0
 60 61 2.0 82 1.0
 61 62 2.0 83 1.0
 62 63 1.5
 63 64 1.5
 64 65 2.0
 65 66 1.5
 66 67 1.5
 67
 68 69 1.0 84 1.0 85 1.0
 69 70 1.0 86 1.0 87 1.0
 70 71 1.0 88 1.0 89 1.0
 71 72 1.0 90 1.0 91 1.0
 72 73 1.0 92 1.0 93 1.0
 73 74 1.0 94 1.0 95 1.0
 74 75 1.0 96 1.0 97 1.0
 75 76 2.0 98 1.0 99 1.0
 76 100 1.0 101 1.0 102 1.0
 77
 78
 79
 80
 81
 82
 83
 84
 85
 86
 87
 88
 89
 90
 91
 92
 93
 94
 95
 96
 97
 98
 99
 100
 101
 102

