%mem=15GB
%nprocshared=20
#p b3lyp/6-311g(d,p) geom=connectivity empiricaldispersion=gd3 test

BTBT opt b3lyp/6-311G** GD3

0 1
 X                 -0.02312825    0.01117404   -0.01327940
 X                 -0.02312825    0.01117404    0.98672060
 X                 10.00000000    0.00000000    0.00000000
 X                 10.00000000   30.00000000    0.00000000
 C                 -0.38051159    0.59785214   -0.01327940
 S                  0.65473487    2.01411419   -0.01327940
 C                  2.08723921    0.97518201   -0.01327940
 C                  3.41470545    1.40011445   -0.01327940
 C                  4.41950595    0.44015046   -0.01327940
 C                  4.10760229   -0.92797619   -0.01327940
 C                  2.78845216   -1.35387922   -0.01327940
 C                  1.75692552   -0.40415431   -0.01327940
 H                  3.65827971    2.45601480   -0.01327940
 H                  5.45658176    0.75467044   -0.01327940
 H                  4.90806119   -1.65850424   -0.01327940
 H                  2.54772089   -2.41092366   -0.01327940
 C                  0.33422004   -0.57544590   -0.01327940
 S                 -0.70102574   -1.99170844   -0.01327940
 C                 -2.13353057   -0.95277694   -0.01327940
 C                 -3.46099661   -1.37771001   -0.01327940
 C                 -4.46579757   -0.41774650   -0.01327940
 C                 -4.15389456    0.95038030   -0.01327940
 C                 -2.83474463    1.37628395   -0.01327940
 C                 -1.80321754    0.42655953   -0.01327940
 H                 -3.70457037   -2.43361048   -0.01327940
 H                 -4.95435381    1.68090797   -0.01327940
 H                 -2.59401386    2.43332851   -0.01327940
 C                 -5.92001513   -0.82660303   -0.01327940
 H                 -6.13418164   -1.42298208   -0.90728297
 H                 -6.13749986   -1.42304195    0.87926925
 C                 -6.87420081    0.38204153   -0.01327940
 H                 -6.68765016    0.98257915    0.88485554
 H                 -6.68868818    0.98351192   -0.91100509
 C                 -8.35161200   -0.01947704   -0.01327940
 H                 -8.56604427   -0.61451636    0.88387850
 H                 -8.56602608   -0.61451434   -0.91044299
 C                 -9.30526251    1.17925643   -0.01327940
 H                 -9.12498627    1.78491239   -0.91072416
 H                 -9.12531059    1.78519978    0.88403644
 C                -10.78402271    0.78157820   -0.01327940
 H                -10.99899318    0.18720272    0.88418969
 H                -10.99914870    0.18718906   -0.91070219
 C                -11.73788820    1.98026842   -0.01327940
 H                -11.55810533    2.58638635   -0.91063355
 H                -11.55824845    2.58651282    0.88401797
 C                -13.21698946    1.58270330   -0.01327940
 H                -13.43297934    0.98816626    0.88408256
 H                -13.43306538    0.98815891   -0.91061578
 C                -14.17262287    2.78036838   -0.01327940
 H                -13.99665288    3.37009040   -0.88858649
 H                -13.99228001    3.38489123    0.88393786
 C                -15.64789635    2.37069121   -0.01327940
 H                -15.89010070    1.77328264    0.87148505
 H                -16.30751013    3.24271943   -0.01327940
 H                -15.89010622    1.77328253   -0.89804227

 1 2 1.0 13 2.0 20 1.5
 2 3 1.0
 3 4 1.5 8 1.5
 4 5 1.5 9 1.0
 5 6 1.5 10 1.0
 6 7 1.5 11 1.0
 7 8 1.5 12 1.0
 8 13 1.5
 9
 10
 11
 12
 13 14 1.0
 14 15 1.0
 15 16 1.5 20 1.5
 16 17 1.5 21 1.0
 17 18 1.5 24 1.0
 18 19 1.5 22 1.0
 19 20 1.5 23 1.0
 20
 21
 22
 23
 24 25 1.0 26 1.0 27 1.0
 25
 26
 27 28 1.0 29 1.0 30 1.0
 28
 29
 30 31 1.0 32 1.0 33 1.0
 31
 32
 33 34 1.0 35 1.0 36 1.0
 34
 35
 36 37 1.0 38 1.0 39 1.0
 37
 38
 39 40 1.0 41 1.0 42 1.0
 40
 41
 42 43 1.0 44 1.0 45 1.0
 43
 44
 45 46 1.0 47 1.0 48 1.0
 46
 47
 48 49 1.0 50 1.0 51 1.0
 49
 50
 51

