$ RunGauss
%nproc=20
%mem=24GB     
%chk=opt02m 
#P TEST b3lyp/6-311G** opt=z-matrix EmpiricalDispersion=GD3 

b3lyp-d3/6-311G** BTBT opt      
 
0 1
C
C 1  R2  
C 2  R3  1   A3
C 3  R4  2   A4  1    D4   
C 4  R5  3   A5  2    D5  
C 5  R6  4   A6  3    D6   
S 6  R7  5   A7  4    D7   
C 7  R8  6   A8  5    D8   
C 8  R9  7   A9  6    D9   
S 9  R10 8   A10 7    D10  
C 10 R11 9   A11 8    D11  
C 11 R12 10  A12 9    D12  
C 12 R13 11  A13 10   D13  
C 13 R14 12  A14 11   D14 
C 14 R15 13  A15 12   D15
C 15 R16 14  A16 13   D16  
H 1  R17 2   A17 3    D17  
C 2  R18 3   A18 4    D18 
H 3  R19 4   A19 5    D19  
H 4  R20 5   A20 6    D20  
H 13 R21 12  A21 11   D21  
H 14 R22 13  A22 12   D22  
H 15 R23 14  A23 13   D23  
H 16 R24 15  A24 14   D24  
C 18 R25 2   A25 1    D25  
H 18 R26 2   A26 25   D26  
H 18 R27 2   A27 25   D27  
C 25 R28 18  A28 2    D28  
H 25 R29 18  A29 28   D29  
H 25 R30 18  A30 28   D30  
C 28 R31 25  A31 18   D31  
H 28 R32 25  A32 31   D32  
H 28 R33 25  A33 31   D33  
C 31 R34 28  A34 25   D34  
H 31 R35 28  A35 25   D35  
H 31 R36 28  A36 25   D36  
C 34 R37 31  A37 28   D37  
H 34 R38 31  A38 28   D38  
H 34 R39 31  A39 28   D39  
C 37 R40 34  A40 31   D40  
H 37 R41 34  A41 31   D41  
H 37 R42 34  A42 31   D42  
C 40 R43 37  A43 34   D43  
H 40 R44 37  A44 34   D44  
H 40 R45 37  A45 34   D45  
C 43 R46 40  A46 37   D46  
H 43 R47 40  A47 37   D47  
H 43 R48 40  A48 37   D48  
H 46 R49 43  A49 40   D49  
H 46 R50 43  A50 40   D50  
H 46 R51 43  A51 40   D51  

R2	1.3936
R3	1.4089
R4	1.3846
R5	1.4017
R6	1.4168
R7	1.7702
R8	1.7553
R9	1.3739
R10	1.7544
R11	1.7698
R12	1.4185
R13	1.4022
R14	1.3863
R15	1.4032
R16	1.3898
R17	1.0848
R18	1.5106
R19	1.085
R20	1.0842
R21	1.0841
R22	1.0837
R23	1.0837
R24	1.0837
R25	1.5399
R26	1.0958
R27	1.0953
R28	1.531
R29	1.0964
R30	1.0964
R31	1.5318
R32	1.0977
R33	1.0977
R34	1.5313
R35	1.0976
R36	1.0976
R37	1.5319
R38	1.0977
R39	1.0977
R40	1.5316
R41	1.0977
R42	1.0977
R43	1.5322
R44	1.0979
R45	1.0979
R46	1.5311
R47	1.0968
R48	1.0968
R49	1.0934
R50	1.0947
R51	1.0947
A3	119.108
A4	121.7353
A5	119.5521
A6	118.7271
A7	112.432
A8	90.2303
A9	112.4226
A10	112.4601
A11	90.2334
A12	112.4552
A13	119.1325
A14	119.4898
A15	120.7454
A16	120.8256
A17	120.022
A18	120.2423
A19	119.4367
A20	119.8637
A21	119.7959
A22	119.7129
A23	119.7274
A24	120.6965
A25	112.5865
A26	109.6
A27	109.7877
A28	113.0858
A29	108.9344
A30	109.01
A31	113.2998
A32	109.3087
A33	109.3097
A34	113.4517
A35	109.2424
A36	109.266
A37	113.459
A38	109.2529
A39	109.2614
A40	113.4664
A41	109.2739
A42	109.2843
A43	113.542
A44	109.3023
A45	109.307
A46	113.0671
A47	109.1617
A48	109.1642
A49	111.5846
A50	111.0514
A51	111.0517
D4	0.0021
D5	-0.0497
D6	0.0633
D7	179.7477
D8	0.0512
D9	-0.0658
D10	179.9841
D11	-0.0025
D12	-0.0069
D13	179.9991
D14	0.0046
D15	-0.0058
D16	0.0016
D17	180.1494
D18	177.5547
D19	180.1757
D20	180.3168
D21	180.0057
D22	179.9989
D23	180.0042
D24	180.0027
D26	121.5446
D27	-121.8041
D28	179.6326
D29	122.3373
D30	-122.3159
D31	180.0942
D32	122.1573
D33	-122.1611
D34	180.0749
D35	57.8884
D36	-57.7104
D37	180.2273
D38	58.0615
D39	-57.6052
D40	180.0805
D41	57.9117
D42	-57.7439
D43	180.0993
D44	57.9341
D45	-57.7337
D46	180.042
D47	57.8411
D48	-57.7547
D49	180.0201
D50	59.8022
D51	-59.7609
D25	93.7203
   






